data/CVRPLIB/Vrp-Set-XML100/instances/XML100_1112_18.vrp
NAME : XML100_1112_18
COMMENT : Generated by Queiroga, Sadykov, Uchoa, and Vidal (2021)
TYPE : CVRP
DIMENSION : 101
EDGE_WEIGHT_TYPE : EUC_2D
CAPACITY : 6
NODE_COORD_SECTION
1    81   339 
2    554  389 
3    653  814 
4    288  301 
5    72   11  
6    183  622 
7    143  455 
8    16   500 
9    902  507 
10   35   625 
11   755  447 
12   744  670 
13   102  624 
14   710  883 
15   866  670 
16   311  744 
17   660  456 
18   412  339 
19   868  732 
20   409  580 
21   645  519 
22   766  849 
23   785  895 
24   844  48  
25   172  252 
26   503  271 
27   565  340 
28   667  626 
29   418  194 
30   811  643 
31   588  56  
32   284  117 
33   723  975 
34   798  985 
35   86   384 
36   898  125 
37   592  776 
38   53   770 
39   663  494 
40   520  708 
41   148  22  
42   220  406 
43   954  392 
44   93   89  
45   466  107 
46   387  877 
47   883  613 
48   62   363 
49   746  661 
50   621  370 
51   576  362 
52   836  692 
53   849  389 
54   870  810 
55   834  382 
56   654  278 
57   72   590 
58   402  377 
59   441  627 
60   234  364 
61   942  803 
62   392  603 
63   29   859 
64   49   945 
65   701  923 
66   122  539 
67   909  229 
68   225  49  
69   75   408 
70   414  836 
71   917  652 
72   910  912 
73   381  19  
74   696  81  
75   623  294 
76   737  211 
77   593  59  
78   887  216 
79   351  626 
80   681  591 
81   996  463 
82   99   660 
83   848  718 
84   385  832 
85   868  641 
86   278  439 
87   627  145 
88   658  521 
89   95   611 
90   971  845 
91   775  963 
92   135  795 
93   751  317 
94   96   927 
95   576  924 
96   839  381 
97   82   696 
98   900  566 
99   64   132 
100  535  236 
101  329  972 
DEMAND_SECTION
1    0   
2    1   
3    1   
4    1   
5    1   
6    1   
7    1   
8    1   
9    1   
10   1   
11   1   
12   1   
13   1   
14   1   
15   1   
16   1   
17   1   
18   1   
19   1   
20   1   
21   1   
22   1   
23   1   
24   1   
25   1   
26   1   
27   1   
28   1   
29   1   
30   1   
31   1   
32   1   
33   1   
34   1   
35   1   
36   1   
37   1   
38   1   
39   1   
40   1   
41   1   
42   1   
43   1   
44   1   
45   1   
46   1   
47   1   
48   1   
49   1   
50   1   
51   1   
52   1   
53   1   
54   1   
55   1   
56   1   
57   1   
58   1   
59   1   
60   1   
61   1   
62   1   
63   1   
64   1   
65   1   
66   1   
67   1   
68   1   
69   1   
70   1   
71   1   
72   1   
73   1   
74   1   
75   1   
76   1   
77   1   
78   1   
79   1   
80   1   
81   1   
82   1   
83   1   
84   1   
85   1   
86   1   
87   1   
88   1   
89   1   
90   1   
91   1   
92   1   
93   1   
94   1   
95   1   
96   1   
97   1   
98   1   
99   1   
100  1   
101  1   
DEPOT_SECTION
1
-1
EOF
