data/CVRPLIB/Vrp-Set-XML100/solutions/XML100_1112_18.sol
Route #1: 96 37 62 63 93 91
Route #2: 15 83 69 45 100 5
Route #3: 73 23 35 66 77 75
Route #4: 7 9 81 12 88 56
Route #5: 13 64 90 33 32 94
Route #6: 21 22 71 89 60 53
Route #7: 20 87 38 16 49 1
Route #8: 27 48 11 2 36 39
Route #9: 31 67 40 4 43 98
Route #10: 26 50 74 55 99 25
Route #11: 47 68 6 34
Route #12: 24 3 17 57 59 41
Route #13: 84 70 46 97 8 10
Route #14: 85 19 58 61 78 65
Route #15: 79 29 14 18 82 51
Route #16: 80 42 52 95 54 92
Route #17: 72 44 30 76 86 28
Cost 23599
